(set-info :smt-lib-version 2.6)
(set-logic QF_BV)
(set-info :source |
 Patrice Godefroid, SAGE (systematic dynamic test generation)
 For more information: http://research.microsoft.com/en-us/um/people/pg/public_psfiles/ndss2008.pdf
|)
(set-info :category "industrial")
(set-info :status unsat)
(declare-fun T1_1144 () (_ BitVec 8))
(declare-fun T1_888 () (_ BitVec 8))
(declare-fun T1_632 () (_ BitVec 8))
(declare-fun T1_376 () (_ BitVec 8))
(declare-fun T1_120 () (_ BitVec 8))
(declare-fun T1_1400 () (_ BitVec 8))
(declare-fun T1_1656 () (_ BitVec 8))
(declare-fun T1_1912 () (_ BitVec 8))
(declare-fun T1_2168 () (_ BitVec 8))
(declare-fun T1_2424 () (_ BitVec 8))
(declare-fun T1_2680 () (_ BitVec 8))
(declare-fun T1_2936 () (_ BitVec 8))
(assert (let ((?v_15 ((_ zero_extend 24) T1_888)) (?v_11 ((_ zero_extend 24) T1_632)) (?v_7 ((_ zero_extend 24) T1_376)) (?v_4 ((_ zero_extend 24) T1_120))) (let ((?v_10 (bvadd ?v_4 (_ bv122 32)))) (let ((?v_9 (bvadd ?v_10 ?v_7))) (let ((?v_14 (bvadd ?v_9 (_ bv1 32)))) (let ((?v_13 (bvadd ?v_14 ?v_11))) (let ((?v_18 (bvadd ?v_13 (_ bv1 32)))) (let ((?v_17 (bvadd ?v_18 ?v_15))) (let ((?v_19 (bvadd (bvadd ?v_17 (_ bv1 32)) ((_ zero_extend 24) T1_1144)))) (let ((?v_16 (bvadd (bvadd ?v_19 (_ bv1 32)) ((_ zero_extend 24) T1_1400)))) (let ((?v_12 (bvadd (bvadd ?v_16 (_ bv1 32)) ((_ zero_extend 24) T1_1656)))) (let ((?v_8 (bvadd (bvadd ?v_12 (_ bv1 32)) ((_ zero_extend 24) T1_1912)))) (let ((?v_5 (bvadd (bvadd ?v_8 (_ bv1 32)) ((_ zero_extend 24) T1_2168))) (?v_6 (bvadd ?v_4 (_ bv121 32)))) (let ((?v_3 (bvadd (bvadd ?v_5 (_ bv1 32)) ((_ zero_extend 24) T1_2424)))) (let ((?v_2 (bvadd (bvadd ?v_3 (_ bv1 32)) ((_ zero_extend 24) T1_2680)))) (let ((?v_1 (bvadd (bvadd ?v_2 (_ bv1 32)) ((_ zero_extend 24) T1_2936)))) (let ((?v_0 (bvsub (_ bv2957 32) (bvadd ?v_1 (_ bv1 32))))) (and true (bvule T1_1144 (_ bv0 8)) (= ?v_0 (_ bv1 32)) (bvule ?v_0 (_ bv1 32)) (bvult (_ bv1 32) (bvsub (_ bv2957 32) ?v_1)) (not (= T1_2936 (_ bv0 8))) (bvule ?v_1 (_ bv2957 32)) (bvule (_ bv0 32) ?v_1) (bvult (_ bv1 32) (bvsub (_ bv2957 32) ?v_2)) (not (= T1_2680 (_ bv0 8))) (bvule ?v_2 (_ bv2957 32)) (bvule (_ bv0 32) ?v_2) (bvult (_ bv1 32) (bvsub (_ bv2957 32) ?v_3)) (not (= T1_2424 (_ bv0 8))) (bvule ?v_3 (_ bv2957 32)) (bvule (_ bv0 32) ?v_3) (bvult (_ bv1 32) (bvsub (_ bv2957 32) ?v_6)) (bvult (_ bv1 32) (bvsub (_ bv2957 32) ?v_5)) (bvsle (bvsub ?v_4 (_ bv255 32)) (_ bv0 32)) (bvslt (_ bv0 32) (bvsub ?v_4 (_ bv254 32))) (bvule ?v_6 (_ bv2957 32)) (bvule (_ bv0 32) ?v_6) (not (= T1_2168 (_ bv0 8))) (bvule ?v_5 (_ bv2957 32)) (bvule (_ bv0 32) ?v_5) (bvsle (bvsub ?v_7 (_ bv255 32)) (_ bv0 32)) (bvslt (_ bv0 32) (bvsub ?v_7 (_ bv254 32))) (bvslt (_ bv0 32) ?v_4) (not (= ?v_4 (_ bv0 32))) (bvult ?v_4 (_ bv2836 32)) (bvsle (_ bv0 32) ?v_4) (bvult (_ bv0 8) T1_120) (not (= T1_120 (_ bv0 8))) (bvult (_ bv1 32) (bvsub (_ bv2957 32) ?v_8)) (bvult (_ bv1 32) (bvsub (_ bv2957 32) ?v_9)) (bvslt (_ bv0 32) ?v_7) (not (= ?v_7 (_ bv0 32))) (bvult ?v_7 (bvsub (_ bv2957 32) ?v_10)) (bvsle (_ bv0 32) ?v_7) (bvult (_ bv0 8) T1_376) (not (= T1_376 (_ bv0 8))) (not (= T1_1912 (_ bv0 8))) (bvule ?v_8 (_ bv2957 32)) (bvule (_ bv0 32) ?v_8) (bvsle (bvsub ?v_11 (_ bv255 32)) (_ bv0 32)) (bvslt (_ bv0 32) (bvsub ?v_11 (_ bv254 32))) (bvule ?v_9 (_ bv2957 32)) (bvule (_ bv0 32) ?v_9) (bvult (_ bv1 32) (bvsub (_ bv2957 32) ?v_12)) (bvult (_ bv1 32) (bvsub (_ bv2957 32) ?v_13)) (bvslt (_ bv0 32) ?v_11) (not (= ?v_11 (_ bv0 32))) (bvult ?v_11 (bvsub (_ bv2957 32) ?v_14)) (bvsle (_ bv0 32) ?v_11) (bvult (_ bv0 8) T1_632) (not (= T1_632 (_ bv0 8))) (not (= T1_1656 (_ bv0 8))) (bvule ?v_12 (_ bv2957 32)) (bvule (_ bv0 32) ?v_12) (bvsle (bvsub ?v_15 (_ bv255 32)) (_ bv0 32)) (bvslt (_ bv0 32) (bvsub ?v_15 (_ bv254 32))) (bvule ?v_13 (_ bv2957 32)) (bvule (_ bv0 32) ?v_13) (bvult (_ bv1 32) (bvsub (_ bv2957 32) ?v_16)) (bvult (_ bv1 32) (bvsub (_ bv2957 32) ?v_17)) (bvslt (_ bv0 32) ?v_15) (not (= ?v_15 (_ bv0 32))) (bvult ?v_15 (bvsub (_ bv2957 32) ?v_18)) (bvsle (_ bv0 32) ?v_15) (bvult (_ bv0 8) T1_888) (not (= T1_888 (_ bv0 8))) (not (= T1_1400 (_ bv0 8))) (bvule ?v_16 (_ bv2957 32)) (bvule (_ bv0 32) ?v_16) (bvule ?v_17 (_ bv2957 32)) (bvule (_ bv0 32) ?v_17) (bvult (_ bv1 32) (bvsub (_ bv2957 32) ?v_19)) (bvule ?v_19 (_ bv2957 32)) (bvule (_ bv0 32) ?v_19) (not (= T1_1144 (_ bv0 8)))))))))))))))))))))
(check-sat)
(exit)
